<number of tasks>
50

<cycle time>
1000

<order strength>
0.596


<task times>
1 198
2 456
3 21
4 312
5 228
6 539
7 69
8 195
9 495
10 591
11 93
12 284
13 219
14 21
15 67
16 343
17 296
18 476
19 100
20 55
21 164
22 111
23 116
24 231
25 66
26 568
27 425
28 56
29 536
30 375
31 79
32 189
33 338
34 44
35 55
36 310
37 91
38 89
39 214
40 394
41 107
42 209
43 556
44 91
45 370
46 116
47 451
48 332
49 468
50 273

<precedence relations>
1,4
2,5
2,6
2,7
3,6
3,7
4,9
5,10
6,8
6,11
6,12
7,11
7,12
8,13
9,16
10,15
11,14
11,16
12,16
13,17
14,18
15,19
16,20
16,21
17,22
18,23
19,24
20,24
20,25
21,24
21,25
22,29
23,27
24,26
24,28
24,29
24,30
25,28
25,29
25,30
26,32
27,34
28,31
28,34
28,35
28,45
29,34
29,35
30,33
30,34
30,35
31,36
32,37
33,38
34,39
34,40
35,40
35,41
35,50
36,44
37,42
38,45
39,43
40,44
40,46
41,49
42,48
43,47
44,49
45,50
46,48

<end>
